p tw 448 471
1 2
2 113
3 14
4 5
5 6
6 7
7 8
8 9
9 10
10 11
11 12
12 13
13 15
14 25
15 16
16 17
17 18
18 19
19 20
20 21
21 22
22 23
23 24
24 26
25 36
26 27
27 28
28 29
29 30
30 31
31 32
32 33
33 34
34 35
35 37
36 47
37 38
38 39
39 40
40 41
41 42
42 43
43 44
44 45
45 46
46 48
46 251
47 58
48 49
49 50
50 51
51 52
52 53
53 54
54 55
55 56
56 57
57 59
58 69
59 60
60 61
61 62
62 63
63 64
64 65
65 66
66 67
67 68
68 70
68 75
69 80
70 71
71 72
72 73
73 74
74 246
75 76
76 77
77 78
77 84
78 79
79 81
80 91
81 82
82 83
83 246
84 85
85 86
86 87
87 88
88 89
89 90
90 92
91 102
92 93
93 94
93 103
94 95
95 96
96 97
97 98
98 99
99 100
100 101
101 246
102 114
103 104
104 105
105 106
106 107
107 108
108 109
109 110
110 111
110 119
111 112
112 115
113 224
114 125
115 116
116 117
117 118
118 246
119 120
120 121
121 122
122 123
123 124
124 126
125 136
126 127
127 128
127 134
128 129
129 130
130 131
131 132
132 133
133 246
134 135
135 137
136 147
137 138
138 139
139 140
140 141
141 142
142 143
142 152
143 144
144 145
145 146
146 148
147 158
148 149
149 150
150 151
151 246
152 153
153 154
154 155
155 156
156 157
157 159
158 169
159 160
160 161
160 170
161 162
162 163
163 164
164 165
165 166
166 167
167 168
168 246
169 180
170 171
171 172
172 173
173 174
174 175
175 176
176 177
177 178
177 185
178 179
179 181
180 191
181 182
182 183
183 184
184 246
185 186
186 187
187 188
188 189
189 190
190 192
191 202
192 193
193 194
193 200
194 195
195 196
196 197
197 198
198 199
199 246
200 201
201 203
202 213
203 204
204 205
205 206
206 207
207 208
208 209
208 216
209 210
210 211
211 212
212 214
213 225
214 215
215 246
216 217
217 218
218 219
219 220
220 221
221 222
222 223
223 226
223 232
224 335
225 236
225 247
226 227
227 228
228 229
229 230
230 231
231 246
232 233
233 234
234 235
235 237
236 387
237 238
238 239
239 240
240 241
240 246
241 242
242 243
243 244
244 245
245 246
246 248
247 258
248 249
249 250
250 43
251 252
252 253
252 254
253 387
254 255
255 256
255 257
256 387
257 259
258 269
259 260
259 261
260 387
261 262
262 263
263 264
264 265
265 266
266 267
267 268
268 270
269 280
270 271
271 272
272 273
273 274
274 275
275 276
276 277
277 278
278 279
279 281
280 291
281 282
282 283
282 299
283 284
284 285
285 286
286 287
287 288
288 289
289 290
290 292
291 302
292 293
293 294
294 295
295 296
296 297
297 298
297 299
298 387
299 300
300 301
300 318
301 303
302 313
303 304
304 305
305 306
306 307
307 308
308 309
309 310
310 311
311 312
312 314
313 324
314 315
315 316
316 317
316 318
317 387
318 319
319 320
319 338
320 321
321 322
322 323
323 325
324 336
325 326
326 327
327 328
328 329
329 330
330 331
331 332
332 333
333 334
334 337
334 338
335 394
336 347
337 387
338 339
339 340
340 341
341 342
342 343
343 344
344 345
345 346
346 348
347 358
348 349
349 350
350 351
351 352
352 353
353 354
354 355
355 356
356 357
357 359
358 369
359 360
360 361
361 362
362 363
363 364
364 365
365 366
366 367
367 368
368 370
369 380
370 371
371 372
372 373
373 374
374 375
375 376
376 377
376 379
377 378
378 387
379 381
380 389
381 382
382 383
383 384
384 385
385 386
386 387
387 388
389 390
390 391
391 392
392 393
393 395
394 405
395 396
396 397
397 398
398 399
399 400
400 401
401 402
402 403
403 404
404 406
405 416
406 407
407 408
408 409
409 410
410 411
411 412
412 413
413 414
414 415
415 417
416 427
417 418
418 419
419 420
420 421
421 422
422 423
423 424
424 425
425 426
426 428
427 438
428 429
429 430
430 431
431 432
432 433
433 434
434 435
435 436
436 437
437 439
438 3
439 440
440 441
441 442
442 443
443 444
444 445
445 446
446 447
447 448
448 4
